solution status: time limit reached
objective value:                          51302.55051
y#4                                                 1 	(obj:5700)
y#9                                                 1 	(obj:5700)
y#11                                                1 	(obj:5700)
y#13                                                1 	(obj:5700)
y#18                                                1 	(obj:5700)
y#22                                                1 	(obj:5700)
y#23                                                1 	(obj:5700)
y#26                                                1 	(obj:5700)
y#30                                                1 	(obj:5700)
x#1#26                                              1 	(obj:0.03349)
x#2#18                                              1 	(obj:0.02295)
x#3#11                                              1 	(obj:0.00221)
x#4#23                                              1 	(obj:0.02244)
x#5#9                                               1 	(obj:0.02159)
x#6#23                                              1 	(obj:0.01156)
x#7#22                                              1 	(obj:0.01207)
x#8#9                                               1 	(obj:0.06528)
x#9#26                                              1 	(obj:0.02108)
x#10#23                                             1 	(obj:0.01377)
x#11#13                                             1 	(obj:0.01496)
x#12#23                                             1 	(obj:0.03995)
x#13#11                                             1 	(obj:0.0204)
x#14#9                                              1 	(obj:0.01768)
x#15#13                                             1 	(obj:0.02448)
x#16#13                                             1 	(obj:0.00204)
x#17#4                                              1 	(obj:0.02771)
x#18#4                                              1 	(obj:0.03774)
x#19#23                                             1 	(obj:0.03553)
x#20#4                                              1 	(obj:0.01734)
x#21#26                                             1 	(obj:0.01224)
x#22#26                                             1 	(obj:0.01037)
x#23#22                                             1 	(obj:0.02057)
x#24#26                                             1 	(obj:0.02431)
x#25#9                                              1 	(obj:0.00969)
x#26#30                                             1 	(obj:0.01955)
x#27#30                                             1 	(obj:0.01411)
x#28#9                                              1 	(obj:0.00816)
x#29#9                                              1 	(obj:0.034)
x#30#13                                             1 	(obj:0.02754)
x#31#22                                             1 	(obj:0.02958)
x#32#4                                              1 	(obj:0.00425)
x#33#23                                             1 	(obj:0.01343)
x#34#11                                             1 	(obj:0.02363)
x#35#30                                             1 	(obj:0.0204)
x#36#22                                             1 	(obj:0.03451)
x#37#23                                             1 	(obj:0.00918)
x#38#11                                             1 	(obj:0.02754)
x#39#9                                              1 	(obj:0.01649)
x#40#11                                             1 	(obj:0.03961)
x#41#18                                             1 	(obj:0.0085)
x#42#26                                             1 	(obj:0.03213)
x#43#11                                             1 	(obj:0.03468)
x#44#23                                             1 	(obj:0.03961)
x#45#18                                             1 	(obj:0.02057)
x#46#13                                             1 	(obj:0.04029)
x#47#30                                             1 	(obj:0.03893)
x#48#4                                              1 	(obj:0.02482)
x#49#30                                             1 	(obj:0.05032)
x#50#18                                             1 	(obj:0.01921)
x#51#13                                             1 	(obj:0.0527)
x#52#13                                             1 	(obj:0.03587)
x#53#18                                             1 	(obj:0.05406)
x#54#4                                              1 	(obj:0.02856)
x#55#26                                             1 	(obj:0.01003)
x#56#18                                             1 	(obj:0.02805)
x#57#22                                             1 	(obj:0.01428)
x#58#13                                             1 	(obj:0.02754)
x#59#18                                             1 	(obj:0.01326)
x#60#9                                              1 	(obj:0.0255)
x#61#22                                             1 	(obj:0.04097)
x#62#18                                             1 	(obj:0.00561)
x#63#26                                             1 	(obj:0.00816)
x#64#18                                             1 	(obj:0.02176)
x#65#13                                             1 	(obj:0.01411)
x#66#4                                              1 	(obj:0.02516)
x#67#26                                             1 	(obj:0.03417)
x#68#23                                             1 	(obj:0.01564)
x#69#18                                             1 	(obj:0.0187)
x#70#22                                             1 	(obj:0.02278)
x#71#30                                             1 	(obj:0.02091)
x#72#26                                             1 	(obj:0.03196)
x#73#22                                             1 	(obj:0.03706)
x#74#11                                             1 	(obj:0.04029)
x#75#22                                             1 	(obj:0.02567)
x#76#11                                             1 	(obj:0.03536)
x#77#11                                             1 	(obj:0.03451)
x#78#30                                             1 	(obj:0.03162)
x#79#26                                             1 	(obj:0.02941)
x#80#23                                             1 	(obj:0.04471)
x#81#23                                             1 	(obj:0.0255)
x#82#11                                             1 	(obj:0.02601)
x#83#30                                             1 	(obj:0.01649)
x#84#11                                             1 	(obj:0.00884)
x#85#11                                             1 	(obj:0.0238)
x#86#23                                             1 	(obj:0.01751)
x#87#9                                              1 	(obj:0.03349)
x#88#4                                              1 	(obj:0.02397)
x#89#13                                             1 	(obj:0.01717)
x#90#4                                              1 	(obj:0.05899)
x#91#22                                             1 	(obj:0.03111)
x#92#22                                             1 	(obj:0.02703)
x#93#4                                              1 	(obj:0.01734)
x#94#13                                             1 	(obj:0.03247)
x#95#4                                              1 	(obj:0.04029)
x#96#4                                              1 	(obj:0.03383)
x#97#26                                             1 	(obj:0.0357)
x#98#18                                             1 	(obj:0.02992)
x#99#30                                             1 	(obj:0.02822)
x#100#9                                             1 	(obj:0.02193)
